p edge 20 60
e 1 16
e 1 16
e 1 17
e 2 3
e 2 18
e 2 19
e 3 8
e 3 14
e 3 19
e 4 6
e 4 8
e 4 14
e 5 9
e 5 9
e 5 18
e 6 13
e 6 15
e 6 19
e 7 6
e 7 15
e 7 17
e 8 4
e 8 7
e 8 15
e 9 1
e 9 2
e 9 16
e 10 2
e 10 11
e 10 19
e 11 9
e 11 15
e 11 20
e 12 9
e 12 11
e 12 13
e 13 8
e 13 9
e 13 12
e 14 2
e 14 8
e 14 19
e 15 3
e 15 13
e 15 16
e 16 3
e 16 10
e 16 20
e 17 5
e 17 10
e 17 15
e 18 7
e 18 9
e 18 17
e 19 5
e 19 6
e 19 7
e 20 3
e 20 5
e 20 16
